NiI2                                    
   3.95000000000000     
     0.8660250000000000   -0.5000000000000000    0.0000000000000000
     0.8660250000000000    0.5000000000000000    0.0000000000000000
     0.0000000000000000    0.0000000000000000    5.0000000000000000
   Ni   I 
     1     2
Direct
  0.0000000168530630 -0.0000000251324449 -0.0000000158889043
  0.3333354787877734  0.3333358982559446  0.0798791456312586
  0.6666645043591636  0.6666641268765003  0.9201208702576457
 
  0.00000000E+00  0.00000000E+00  0.00000000E+00
  0.00000000E+00  0.00000000E+00  0.00000000E+00
  0.00000000E+00  0.00000000E+00  0.00000000E+00
